generators/4_4.param
language ESSENCE' 1.0
letting input=[6,3,8,1]
letting output=[4,7,8,1]
letting MAX_OPS=19
letting num_registers=1